z1,z2,z3,nondominated
4,7,1,0
2,10,3,0
3,4,4,0
6,3,10,0
10,3,5,0
7,5,3,0
2,6,7,0
10,10,5,0
3,2,3,0
2,4,4,0
5,7,4,0
4,3,6,0
1,2,1,0
4,4,4,0
9,7,1,0
2,5,9,0
8,3,3,0
7,10,8,0
3,10,6,0
6,2,2,0
8,1,4,0
6,2,2,0
1,5,1,0
2,3,10,0
9,4,9,0
5,7,8,0
10,5,10,0
3,1,9,0
9,4,5,0
10,3,6,0
5,3,1,0
3,2,4,0
9,5,2,0
8,2,8,0
9,9,2,0
3,6,5,0
1,1,1,0
1,1,1,0
1,1,1,0
1,1,1,0
1,1,1,0
1,1,1,0
